units           metal
atom_style      atomic
boundary        s s s

read_data       training.data

neighbor        5.0 bin
neigh_modify    delay 0 every 1 check yes 
comm_modify     cutoff 6.0


velocity        all create 300.0 12345 mom yes dist gaussian

dump            1 all custom 10 trajectory.dump id type x y z
dump_modify     1 sort id flush yes

fix             1 all nvt temp 300.0 1000.0 0.1

timestep        0.001
thermo          100
